\ Model root_rmp_7
\ LP format - for model browsing. Use MPS format to capture full model detail.
\ Signature: 0x94778d1b0e96b9f7
Minimize
  7.1 x[21] + 8.5 x[33] + 9.2 x[34] + 9.2 x[35] + 9.6 x[36] + 7.45 x[70]
   + 11.88 x[76] + 8.55 x[81] + 9.5 x[82] + 8.65 x[83] + 10.7 x[85]
   + 9.85 x[86] + 5.9 x[96] + 6.1 x[107] + 10.3 x[116] + 10.05 x[117]
   + 10.5 x[119] + 10.25 x[120]
Subject To
 cover[H1]: x[21] + x[33] + x[34] + x[35] = 1
 cover[H2]: x[21] + x[33] + x[34] + x[36] + x[76] = 1
 cover[H3]: x[21] + x[33] + x[35] + x[36] + x[76] = 1
 cover[H4]: x[33] + x[34] + x[35] + x[36] + x[76] = 1
 cover[H5]: x[34] + x[35] + x[36] + x[70] + x[76] + x[81] + x[82] + x[85]
   + x[116] + x[119] = 1
 cover[H6]: x[70] + x[81] + x[82] + x[83] + x[85] + x[86] + x[116] + x[117]
   + x[119] + x[120] = 1
 cover[H7]: x[70] + x[81] + x[83] + x[86] + x[117] + x[120] = 1
 cover[H8]: x[81] + x[82] + x[83] + x[85] + x[86] + x[116] + x[117]
   + x[119] + x[120] = 1
 cover[H9]: x[82] + x[83] + x[85] + x[86] + x[96] + x[107] + x[116]
   + x[117] + x[119] + x[120] = 1
 cover[H10]: x[85] + x[86] + x[107] + x[119] + x[120] = 1
 choose[A]: x[21] + x[33] + x[34] + x[35] + x[36] = 1
 choose[B]: x[42] + x[70] + x[76] + x[81] + x[82] + x[83] + x[85] + x[86]
   = 1
 choose[C]: x[87] + x[96] + x[107] + x[116] + x[117] + x[119] + x[120] = 1
Bounds
 x[21] <= 1
 x[33] <= 1
 x[34] <= 1
 x[35] <= 1
 x[36] <= 1
 x[42] <= 1
 x[70] <= 1
 x[76] <= 1
 x[81] <= 1
 x[82] <= 1
 x[83] <= 1
 x[85] <= 1
 x[86] <= 1
 x[87] <= 1
 x[96] <= 1
 x[107] <= 1
 x[116] <= 1
 x[117] <= 1
 x[119] <= 1
 x[120] <= 1
End
